% Generated FlatZinc statistics:
%%%mzn-stat: paths=0
%%%mzn-stat: flatBoolVars=36
%%%mzn-stat: flatIntVars=182
%%%mzn-stat: flatBoolConstraints=20
%%%mzn-stat: flatIntConstraints=300
%%%mzn-stat: evaluatedReifiedConstraints=35
%%%mzn-stat: evaluatedHalfReifiedConstraints=1
%%%mzn-stat: method="minimize"
%%%mzn-stat: flatTime=0.051453
%%%mzn-stat-end

=====UNKNOWN=====
%%%mzn-stat: nSolutions=0
%%%mzn-stat-end
